Reproduction of the Original Problem/Instances/S3-5/S3-10-5-1-l.txt
     300       5    0.10
       3       3       1       1       3      10      13       0      14      11       2
       1       2       2       1       1       0       4       4       1      12       2
       1       1       2       3       3      12      10       6       0      12       2
       1       3       2       2       2      14       1      11      15       1       2
       1       2       1       1       2       5       4       0      13      15       2
       2       3       1       2       2       6      11       6      13      16       3
       2       1       2       2       3       0       9      13      11       6       3
       1       3       1       2       1       2       6      10      10      14       3
       1       2       2       2       1       3       4       7       8       5       3
       1       3       1       2       1      15       8      11       4      16       3
       1       3       1       1       2      11      11       5       2       4       3
       2       2       2       1       1       8       1       4       0      10       2
       1       3       1       2       1      13       2       6      16      14       2
       3       1       1       2       3      11       2      15       2       2       2
       1       3       1       1       2       7       0       9       5       5       2
       2       1       2       1       3       7      16       5       0      11       3
       2       3       3       1       1       9      10      12       8      15       2
       1       3       2       2       1      15       6       5       2       7       3
       1       1       2       2       3       0       9       2      11      11       3
       1       2       1       3       3      12       3      16       4      12       2
       3       3       1       2       1       6       1       3       3      11       2
       2       1       1       1       1       3      15      15       6       9       3
       1       2       1       3       1       7       1       0      12       6       2
       1       3       2       3       1       0      16      11       0       9       2
       3       3       3       3       3       0      13       2       0      12       2
       3       3       2       2       3      14      10      16       7      16       2
       2       2       1       1       1       7      12      16      12      10       2
       3       2       3       1       1       3       8       5      13       5       3
       1       2       3       1       3      12       0       4      11       7       3
       2       2       2       1       1      12       3       2       5       5       2
       1       1       3       1       3      11       3       6       8       2       2
       2       2       3       1       1       1       1      14       8       1       3
       3       3       3       1       3      16       2      12      10       1       2
       2       1       3       2       3       8       6      10      13      12       3
       3       1       3       2       2       5       0       7      10      11       2
       2       2       2       3       2       6       8       6       5      14       3
       3       2       1       1       3       9      15      13      10       6       2
       2       2       2       3       2      13       8       2       3      12       2
       3       2       1       3       3       1      14       7       6      16       2
       1       1       2       2       3       7      16      14       1       5       2
       3       2       1       2       3       4       4       5      13       4       2
       2       1       1       2       2      13      15       1      11       9       2
       2       3       2       3       2       4       6      12      15      15       3
       2       1       3       3       3       6       0       0       5      13       3
       3       1       2       2       2       0       6      14      11       7       2
       1       3       2       3       2      16      14      16      16      10       2
       1       2       1       2       2       2       7      13       2       5       2
       3       1       3       2       1       8      10      10       6       3       2
       1       3       1       3       2       6       9       1      11       8       2
       2       3       2       1       3      14      16       7      12       5       2
       1       3       1       3       2       4       5       2      10       6       3
       3       2       2       1       3       4      15      13      11      15       2
       2       3       3       1       2       5       8       6       2       2       3
       3       1       3       2       1       6      14      15       5      16       3
       2       2       2       2       1       6      15      14       0       8       2
       3       2       1       3       2       1      12      10       5       8       3
       1       2       2       2       3      12       4      14       8      16       2
       2       2       1       3       3      13      11       0      12       0       2
       3       3       3       3       1      16       9      14       5       0       2
       2       3       2       1       1       9      15       3       4       6       3
       3       2       1       3       1      10      14      13       9       0       3
       3       2       1       1       1      13      11       6      12       5       2
       3       1       3       2       1       8       3       6      13       3       2
       2       3       2       3       1       8      12       2      14      14       2
       1       2       3       3       1      14      11      14      11      14       3
       2       1       2       2       3      16      13      14      12       7       3
       1       1       3       2       1       4      11       2       4      11       3
       1       3       1       2       2       8      10       7      10       8       2
       3       2       2       2       3       2      13       3       9      10       3
       1       2       2       1       1      13       2       3       7      13       2
       1       2       2       3       2       0       6       4       9       6       2
       1       2       1       1       3       1       5       4       7      16       3
       3       3       3       3       2       5      13       2      14      11       2
       3       3       3       1       1       1      15      14       3       0       2
       3       3       3       2       1      15       0       2       4       5       3
       2       2       1       3       1      11       7       7      11       5       3
       2       1       2       1       1      11      10       5       2       7       2
       3       3       2       3       1       9       2      10      16       0       2
       2       1       1       1       2       1       5      16       3       4       3
       3       2       1       3       3       0       3       1       1      12       3
       1       1       3       1       1       6       2      11       0       9       3
       3       2       1       3       1       0       9       5       4      13       3
       3       2       3       2       2       8       6       6       4       4       3
       1       2       1       2       1       2      14       1       1      15       3
       3       1       3       3       1       9      11      10       4       9       2
       3       1       2       1       2      11       0      14      10       7       3
       3       2       1       3       3       0      16       0       9      10       3
       1       3       3       3       1      11      12      16       8       5       3
       2       2       1       1       2      16       6      10      11      12       3
       3       1       1       2       3       1       4       9      10      12       3
       1       3       2       1       1       1      11      14      16      16       3
       3       2       3       3       1      14      13      13       3       4       2
       1       2       2       1       2      12      10       1       7       1       3
       3       2       3       2       1      13       3      16      13      10       3
       1       2       2       2       1       1       5       8      14       5       2
       1       1       2       2       2       5       8      13      13      14       2
       3       2       1       2       3       5       6      16       5      10       2
       2       2       1       2       1      14      13       2       5      11       2
       3       3       3       2       3      13       5       9       7       6       3
       3       2       2       3       1       2       8       1       0      13       2
       2       1       2       2       2      13       5       6       6       5       3
       3       2       1       2       1       1       8      16       2       4       2
       3       3       2       3       3      14       8       9      12       7       3
       1       1       1       3       2       2      13       9      13      15       2
       3       3       2       3       1       3       4       0       9      12       2
       1       3       2       3       1      15       0      11       4      13       2
       3       1       3       2       2       0       2      16       0      13       2
       2       3       3       3       1      11      13       1      16      12       3
       3       2       2       1       3       4       7       8       8       9       3
       1       2       2       3       3       7      15       2       3       5       3
       3       3       2       2       1       4      15      16       2       0       3
       1       1       3       1       3       5       1       5       3       2       2
       2       1       2       1       3      13      12       4      13      14       2
       3       3       2       2       1      14       1       2      11       4       2
       1       2       2       1       1       4      14      13       7      12       3
       2       2       2       2       2       2       4      11       7      10       3
       3       1       3       1       3       3       5       2       7      12       2
       3       2       2       1       1       9      16       1       3       0       3
       3       3       1       2       3       7       2      16       8       3       2
       2       3       1       2       2      12       6       8       7       0       3
       1       3       2       1       3      12       9       4       1       8       2
       2       1       2       1       3       4       1       8       5      15       2
       2       1       2       3       3      15       6      14       6       5       2
       1       2       1       3       3       9      14       5       1      15       2
       2       3       2       1       3       1      12       2      14       4       2
       3       3       1       1       2      14       3      10      11      13       2
       1       3       2       1       2      12      14       4      14       7       2
       3       1       3       1       2       0       8      13       4      10       3
       1       1       3       3       1       0      15      13      10       1       2
       3       1       1       1       1      11      14      16       9       4       3
       1       3       1       3       3       2       5       6       7      16       2
       3       1       3       3       3       1       4       2      13      13       3
       1       3       3       1       2      12       4      12      11       8       2
       1       3       3       1       1       7       2      14       6       0       2
       3       1       1       2       2      11      12       2      12       1       3
       2       1       3       1       2      12       6      10       6       4       2
       2       2       3       1       2      11      12      16       4       8       3
       1       2       2       1       1      15       1      13       9       7       2
       3       2       3       3       1       6       2       6       2       8       2
       2       2       3       1       2      15       1       6       1       6       3
       1       2       3       2       1      10       3       0       7       5       3
       1       2       3       1       2       7      15      10       7       2       3
       1       1       2       1       1       3      12       6       4       9       3
       3       3       1       1       1       2       4      16       7       1       3
       2       1       3       2       1       4      14      14      10       5       3
       1       3       1       1       3      16      13       3      15      11       3
       3       3       3       3       2      15       9      15      14      10       3
       2       3       3       2       2      12       3       0      11      13       2
       3       3       3       3       2       7      13      14      15      10       2
       3       1       3       1       2       6       3       4       6       3       2
       3       1       1       2       1      11      15       5       8      11       3
       2       1       2       1       3      14       6       6       3       9       2
       3       1       1       2       2      13       7      16      16       5       2
       1       1       2       2       2       7       1      13       6      10       2
       3       1       2       2       2       3       1      16      13       4       2
       2       3       1       3       3       4      15       8       2       2       2
       3       1       1       1       2      15       3      11       6       4       2
       1       1       3       2       3       6      16       8       9       6       2
       3       1       3       2       3       9      13       7       9      10       2
       3       1       1       1       2       8       3      11       3      12       3
       2       2       2       1       2       4      11      16       5       2       3
       2       3       2       1       2       9      14       4       8       9       3
       2       1       2       3       3       1       0       5       1      11       2
       3       2       2       2       1       1       0       8      16       1       3
       3       3       2       1       3       7      10      14       5       9       3
       2       2       1       2       2       8       4       9      14      12       3
       3       3       3       3       2       9       8       9      15      14       3
       2       2       2       1       3       3       7      13       0       0       3
       3       2       2       1       3      14      12      10       6       4       2
       3       1       2       2       1       3       3      12       7      10       3
       2       1       1       3       3       8      10      15       3       3       3
       2       2       3       1       1      11       7      16       2       2       2
       2       1       2       2       3       9       4      10       5       9       2
       1       3       1       3       1      16       3       2       6       8       3
       1       2       3       2       1      14       2       3      11      13       2
       2       3       3       3       2       8       2       2       2      11       2
       1       3       1       2       2       9       1      11      14       6       2
       3       2       3       1       1      13       4      16       5      11       3
       3       3       3       1       2       4       3      13       9      15       2
       3       2       2       3       2       3      12      14       4      13       2
       1       1       2       1       2      16      10       8       2      12       3
       1       3       3       2       3       9       1       1       9      16       3
       3       2       1       1       2       4      15       9       0       1       2
       3       3       3       2       1       6       1       0      15       5       3
       2       1       1       2       1       6      13      10      16       4       3
       1       3       1       1       1       5       4      10       9      12       3
       1       2       1       3       2      11       4      16      11       7       2
       3       3       2       3       2      13       3       5      15      14       3
       2       3       1       2       1      15       2      10       4      12       2
       1       1       1       2       2       1      11      13      10       2       3
       3       1       1       2       1      14       2       4      16       7       2
       1       3       3       3       3      10      13      16       4       8       2
       3       1       2       3       2      15      10       9       3      10       2
       2       2       1       2       3       9       9      13       3       6       3
       1       3       1       2       3      14      15       0       1       0       3
       3       1       1       2       3      11       7       8       5      11       3
       2       2       2       1       3      11      11       8       6       3       3
       1       2       1       2       2      12       0       7       0       4       3
       1       1       3       1       3       7      14       5       7      14       3
       2       3       1       3       3      16      16       1       3      10       2
       1       3       2       2       1      10      12       8       5       3       3
       2       2       2       3       1      16       7       1       8      16       3
       2       1       3       2       3      11       8      16       0       2       2
       2       3       3       3       3      12      13      15      13      14       2
       3       3       3       2       2       2       6       9      14      14       2
       3       2       3       3       1       6       6       8       1      10       3
       2       1       2       1       3      11      13       6      13       3       2
       2       1       3       3       3      16       1       8      10      14       3
       3       2       2       3       3       3      14       5       3      12       3
       2       3       1       2       2      11       6      12       3      10       2
       3       1       3       1       1      12       4      12       3       8       2
       3       2       1       1       2      13      14      10       1      13       3
       2       2       3       2       1       5      16       8       1      15       3
       3       1       3       3       3       0       3      16       9       1       3
       1       3       1       2       1       3       1       2       0       2       3
       3       1       1       2       1       2      11      11      15      14       2
       1       1       1       3       3       6       9       8      15       3       3
       2       3       2       1       3      10       9      14       5      16       2
       1       3       3       2       2       3       5       3      11      10       3
       1       3       2       1       3      10       1       0       7      13       3
       2       1       3       3       2      12       8      12       9       1       3
       2       3       1       1       3       7       6       8       0       2       3
       1       1       1       2       1       4       6      12       9       7       3
       2       3       3       3       1       1       9       3      10       7       3
       2       2       1       2       2       6       7      12      10       2       2
       1       1       2       1       1      14       2       6       8       5       2
       1       1       2       3       1      10      16       6      16      12       2
       3       3       1       1       1       0       6      11      12      15       3
       1       2       3       3       3       3      14      12       8       2       3
       1       1       3       1       3       7       6      16       2       8       3
       3       2       2       3       2      15       8       4       1       1       2
       3       3       3       3       3      13      11       6      15       5       3
       2       1       3       1       2      15      12      10       3       7       2
       2       2       2       1       2       7      13      11       2      11       3
       3       1       2       1       3      12       1       5      11      15       2
       1       1       3       2       1      11      11       6       3      10       3
       3       2       1       3       2      15      13      15       6       7       3
       3       3       2       1       3      15      11       4      13      10       2
       3       1       1       2       3       1       0       0       3       7       3
       3       2       1       2       2       9      16      15       7      12       3
       3       2       1       3       1       2      10       5      10       0       2
       1       3       2       1       1      11       0      10       7       3       3
       3       1       2       2       2       2      15       8       2       3       3
       2       2       3       1       2       2      12      15      13      13       2
       3       1       3       1       1       6      11       9       3      13       2
       1       2       1       1       2       7       3       9       3       0       3
       1       1       1       3       2       8       2       4       7       6       2
       3       3       1       1       2       7       0       4      13       1       2
       2       2       2       2       1       5       5      15       8       7       3
       3       2       3       2       3       9       6      16       6       5       3
       3       3       1       1       1      12       4       0      11      14       2
       1       3       3       1       2       5      11      10       8      16       2
       1       3       3       3       1       2       3       4      12      16       3
       2       2       1       1       3       4      15       0       6       2       3
       1       1       2       2       2       9      11       5       5       0       2
       2       3       2       3       3       0       3      11       2      12       2
       2       1       1       3       2       4       6       8       7      12       3
       3       1       3       2       3       3       1      11       7       3       3
       2       3       2       3       3       3      12      10      16      15       2
       1       2       1       1       3       9       0       0      12      10       2
       3       1       1       1       1       0      11       6      13       2       3
       1       2       1       1       3       2      12      15      10       5       3
       3       2       2       3       1       7      16       8       6       8       2
       3       3       2       3       3      15      11      13      14       7       3
       3       2       1       3       1       6      16       7       9      15       3
       3       1       2       3       3       7      14      14      14      10       2
       3       1       2       2       2      16       7      16       3      13       2
       2       3       3       1       2      11       0       9      15       0       3
       1       2       2       2       3       3      10       8       5       9       3
       2       1       1       2       3      16       6       0      10       6       3
       3       2       1       2       1       9      11      13      12      11       2
       1       3       3       3       1       9       2       0       3      16       3
       1       2       2       1       3       1       1       5       6       3       3
       1       2       2       2       2      11       5      15       6       1       2
       1       1       1       3       1       3       4      11       5       7       3
       2       2       3       1       3       6      14      12       6      16       3
       1       3       2       3       1      14      14       0       0      12       2
       3       2       2       2       1      12      16      10      13      10       3
       3       1       2       3       1       2      12       1       7       9       2
       2       1       1       3       3      15       4      10       6       7       2
       1       3       1       3       3       4       7       2       1       8       2
       1       2       1       2       2       8      15       2      11       1       3
       1       1       2       1       1       3      13       9       9       8       2
       3       3       3       1       1       4       4       1       5      10       3
       1       1       2       1       2       8       1       9      14       4       3
       3       1       2       2       2       0      10      14       5      15       3
       3       2       3       1       1       5       0      12      16       4       2
       2       2       3       1       2       2       8      14       4      10       2
       1       3       2       3       1      14      10      16      16      14       2
       2       1       1       1       1      14       3      12      15      13       3
       2       1       1       1       1       0      12       7      14       1       3
       1       3       1       2       1      13       5      10      13       8       2
       2       3       1       2       3       2       6       8       6       3       3
       1       1       2       3       1      10       4       8      10       5       2
       1       2       3       1       3      15       1      10       6       2       3
       3       3       2       3       2      16       9      14      12       4       2
       2       1       3       3       3      16      13      10       8      13       3
       1       2       1       1       1      13       6       7       8       7       2
       2       1       2       2       2      12      14       9      16      13       3
       3       3       2       3       3      12      13       3      13       3       2
     239     284     284     227     155
     487     568     554     441     303
     999    1235    1192     933     512